CLP/out/Inst04.txt
[[0, 5, 13, 12, 9, 6, 8, 3, 2, 46, 7, 14, 10, 11, 1, 4, 0],[0, 26, 31, 20, 48, 23, 32, 30, 16, 36, 25, 0],[0, 56, 44, 21, 57, 39, 42, 37, 47, 38, 51, 0],[0, 67, 63, 62, 81, 58, 80, 61, 66, 65, 60, 0],[0, 104, 19, 91, 101, 90, 95, 97, 89, 85, 0],[0, 109, 113, 117, 120, 110, 106, 118, 55, 121, 107, 0],[0, 127, 180, 142, 186, 144, 137, 133, 188, 24, 0],[0, 146, 179, 161, 155, 175, 152, 177, 168, 174, 27, 0],[0, 135, 190, 52, 22, 191, 18, 189, 41, 35, 185, 33, 53, 0],[0, 132, 15, 115, 86, 123, 72, 103, 108, 71, 112, 99, 98, 79, 76, 124, 0],[0, 151, 159, 158, 157, 147, 140, 141, 138, 178, 29, 164, 153, 139, 165, 149, 0],[0, 49, 171, 92, 160, 131, 102, 169, 154, 129, 128, 163, 119, 50, 172, 148, 150, 54, 84, 187, 28, 0],[0, 34, 183, 82, 181, 100, 43, 143, 105, 94, 45, 116, 75, 145, 88, 87, 40, 114, 64, 111, 93, 77, 130, 73, 74, 184, 70, 68, 166, 78, 69, 134, 96, 83, 176, 59, 170, 17, 0],[0, 162, 167, 126, 125, 173, 136, 182, 122, 156, 0],[],[],[],[],[],[]]

Total distance = 16012
